p cnf 196 1
196 0
w 1 0.276269
w 2 1 0
w 2 -1 1
w 3 2 0.75096
w 3 -2 0.746354
w 4 3 1
w 4 -3 0
w 5 4 0.17252
w 5 -4 0.478714
w 6 5 0.256219
w 6 -5 0.202884
w 7 6 1
w 7 -6 0
w 8 7 0.222302
w 8 -7 0.102382
w 9 8 0
w 9 -8 1
w 10 9 0.513955
w 10 -9 0.912023
w 11 10 0
w 11 -10 1
w 12 11 0.936662
w 12 -11 0.668204
w 13 12 0.487547
w 13 -12 0.944472
w 14 13 0.165667
w 14 -13 0.748072
w 15 1 1
w 15 -1 0
w 16 15 2 0.897389
w 16 15 -2 0.417731
w 16 -15 2 0.116331
w 16 -15 -2 0.376103
w 17 16 3 0
w 17 16 -3 0
w 17 -16 3 0
w 17 -16 -3 1
w 18 17 4 1
w 18 17 -4 0
w 18 -17 4 0
w 18 -17 -4 1
w 19 18 5 0.000371114
w 19 18 -5 0.887183
w 19 -18 5 0.703655
w 19 -18 -5 0.469595
w 20 19 6 0.640318
w 20 19 -6 0.137799
w 20 -19 6 0.0725562
w 20 -19 -6 0.127865
w 21 20 7 1
w 21 20 -7 0
w 21 -20 7 0
w 21 -20 -7 1
w 22 21 8 0
w 22 21 -8 1
w 22 -21 8 1
w 22 -21 -8 1
w 23 22 9 0.852038
w 23 22 -9 0.263036
w 23 -22 9 0.109131
w 23 -22 -9 0.279646
w 24 23 10 1
w 24 23 -10 1
w 24 -23 10 0
w 24 -23 -10 1
w 25 24 11 0
w 25 24 -11 1
w 25 -24 11 1
w 25 -24 -11 0
w 26 25 12 0
w 26 25 -12 0
w 26 -25 12 0
w 26 -25 -12 1
w 27 26 13 0.190218
w 27 26 -13 0.976564
w 27 -26 13 0.365355
w 27 -26 -13 0.44687
w 28 27 14 0
w 28 27 -14 0
w 28 -27 14 0
w 28 -27 -14 1
w 29 15 1
w 29 -15 0
w 30 29 16 1
w 30 29 -16 1
w 30 -29 16 0
w 30 -29 -16 1
w 31 30 17 0.159315
w 31 30 -17 0.443723
w 31 -30 17 0.771357
w 31 -30 -17 0.37051
w 32 31 18 1
w 32 31 -18 1
w 32 -31 18 0
w 32 -31 -18 1
w 33 32 19 0
w 33 32 -19 1
w 33 -32 19 1
w 33 -32 -19 0
w 34 33 20 0.957124
w 34 33 -20 0.929975
w 34 -33 20 0.682242
w 34 -33 -20 0.0966334
w 35 34 21 0.487643
w 35 34 -21 0.126628
w 35 -34 21 0.661942
w 35 -34 -21 0.145081
w 36 35 22 0
w 36 35 -22 0
w 36 -35 22 1
w 36 -35 -22 1
w 37 36 23 0.214319
w 37 36 -23 0.944599
w 37 -36 23 0.720163
w 37 -36 -23 0.58483
w 38 37 24 1
w 38 37 -24 0
w 38 -37 24 0
w 38 -37 -24 0
w 39 38 25 0.4681
w 39 38 -25 0.234281
w 39 -38 25 0.486209
w 39 -38 -25 0.951206
w 40 39 26 0.443333
w 40 39 -26 0.881181
w 40 -39 26 0.416649
w 40 -39 -26 0.539966
w 41 40 27 1
w 41 40 -27 0
w 41 -40 27 0
w 41 -40 -27 1
w 42 41 28 1
w 42 41 -28 1
w 42 -41 28 1
w 42 -41 -28 0
w 43 29 0
w 43 -29 1
w 44 43 30 1
w 44 43 -30 1
w 44 -43 30 0
w 44 -43 -30 1
w 45 44 31 1
w 45 44 -31 0
w 45 -44 31 0
w 45 -44 -31 1
w 46 45 32 0.873619
w 46 45 -32 0.678446
w 46 -45 32 0.490005
w 46 -45 -32 0.316951
w 47 46 33 0.906654
w 47 46 -33 0.856918
w 47 -46 33 0.971695
w 47 -46 -33 0.810946
w 48 47 34 0.0457054
w 48 47 -34 0.860319
w 48 -47 34 0.609767
w 48 -47 -34 0.0218446
w 49 48 35 0.751025
w 49 48 -35 0.498859
w 49 -48 35 0.072201
w 49 -48 -35 0.106602
w 50 49 36 0.872708
w 50 49 -36 0.0470093
w 50 -49 36 0.575757
w 50 -49 -36 0.956635
w 51 50 37 0.0687257
w 51 50 -37 0.215775
w 51 -50 37 0.378924
w 51 -50 -37 0.456135
w 52 51 38 0.134522
w 52 51 -38 0.329754
w 52 -51 38 0.621462
w 52 -51 -38 0.624526
w 53 52 39 0.181089
w 53 52 -39 0.53118
w 53 -52 39 0.503623
w 53 -52 -39 0.152784
w 54 53 40 0
w 54 53 -40 1
w 54 -53 40 0
w 54 -53 -40 0
w 55 54 41 0
w 55 54 -41 1
w 55 -54 41 1
w 55 -54 -41 1
w 56 55 42 0
w 56 55 -42 0
w 56 -55 42 1
w 56 -55 -42 1
w 57 43 0
w 57 -43 1
w 58 57 44 1
w 58 57 -44 0
w 58 -57 44 1
w 58 -57 -44 0
w 59 58 45 0.0700378
w 59 58 -45 0.876099
w 59 -58 45 0.537118
w 59 -58 -45 0.716743
w 60 59 46 0
w 60 59 -46 1
w 60 -59 46 0
w 60 -59 -46 0
w 61 60 47 1
w 61 60 -47 1
w 61 -60 47 1
w 61 -60 -47 0
w 62 61 48 0.272332
w 62 61 -48 0.347989
w 62 -61 48 0.0736734
w 62 -61 -48 0.766862
w 63 62 49 0.212884
w 63 62 -49 0.308401
w 63 -62 49 0.203079
w 63 -62 -49 0.30873
w 64 63 50 0.487228
w 64 63 -50 0.620352
w 64 -63 50 0.485617
w 64 -63 -50 0.227512
w 65 64 51 0.398209
w 65 64 -51 0.29755
w 65 -64 51 0.751088
w 65 -64 -51 0.935327
w 66 65 52 0
w 66 65 -52 1
w 66 -65 52 0
w 66 -65 -52 0
w 67 66 53 1
w 67 66 -53 0
w 67 -66 53 0
w 67 -66 -53 0
w 68 67 54 1
w 68 67 -54 1
w 68 -67 54 0
w 68 -67 -54 0
w 69 68 55 1
w 69 68 -55 0
w 69 -68 55 0
w 69 -68 -55 0
w 70 69 56 1
w 70 69 -56 0
w 70 -69 56 1
w 70 -69 -56 1
w 71 57 0.305534
w 71 -57 0.606521
w 72 71 58 0.24086
w 72 71 -58 0.620813
w 72 -71 58 0.484084
w 72 -71 -58 0.244486
w 73 72 59 0.502333
w 73 72 -59 0.658536
w 73 -72 59 0.337632
w 73 -72 -59 0.929044
w 74 73 60 0.704196
w 74 73 -60 0.984551
w 74 -73 60 0.519545
w 74 -73 -60 0.343092
w 75 74 61 1
w 75 74 -61 1
w 75 -74 61 1
w 75 -74 -61 0
w 76 75 62 0
w 76 75 -62 1
w 76 -75 62 1
w 76 -75 -62 1
w 77 76 63 0
w 77 76 -63 0
w 77 -76 63 1
w 77 -76 -63 0
w 78 77 64 0
w 78 77 -64 1
w 78 -77 64 0
w 78 -77 -64 1
w 79 78 65 0.846669
w 79 78 -65 0.614007
w 79 -78 65 0.241457
w 79 -78 -65 0.184301
w 80 79 66 0.926912
w 80 79 -66 0.888497
w 80 -79 66 0.527603
w 80 -79 -66 0.446457
w 81 80 67 1
w 81 80 -67 0
w 81 -80 67 0
w 81 -80 -67 0
w 82 81 68 0
w 82 81 -68 0
w 82 -81 68 1
w 82 -81 -68 1
w 83 82 69 0.426124
w 83 82 -69 0.120207
w 83 -82 69 0.28704
w 83 -82 -69 0.377908
w 84 83 70 0
w 84 83 -70 1
w 84 -83 70 1
w 84 -83 -70 1
w 85 71 1
w 85 -71 0
w 86 85 72 0.380595
w 86 85 -72 0.67959
w 86 -85 72 0.274232
w 86 -85 -72 0.307506
w 87 86 73 0.801835
w 87 86 -73 0.753963
w 87 -86 73 0.799676
w 87 -86 -73 0.717487
w 88 87 74 0.780115
w 88 87 -74 0.412339
w 88 -87 74 0.0494525
w 88 -87 -74 0.223564
w 89 88 75 0
w 89 88 -75 1
w 89 -88 75 0
w 89 -88 -75 1
w 90 89 76 0.290841
w 90 89 -76 0.252543
w 90 -89 76 0.889719
w 90 -89 -76 0.948265
w 91 90 77 0
w 91 90 -77 0
w 91 -90 77 1
w 91 -90 -77 1
w 92 91 78 1
w 92 91 -78 1
w 92 -91 78 0
w 92 -91 -78 1
w 93 92 79 1
w 93 92 -79 1
w 93 -92 79 0
w 93 -92 -79 1
w 94 93 80 0.654867
w 94 93 -80 0.919643
w 94 -93 80 0.312289
w 94 -93 -80 0.70432
w 95 94 81 1
w 95 94 -81 1
w 95 -94 81 1
w 95 -94 -81 0
w 96 95 82 0
w 96 95 -82 1
w 96 -95 82 1
w 96 -95 -82 1
w 97 96 83 0.632706
w 97 96 -83 0.913266
w 97 -96 83 0.287602
w 97 -96 -83 0.724881
w 98 97 84 1
w 98 97 -84 1
w 98 -97 84 0
w 98 -97 -84 1
w 99 85 0.553583
w 99 -85 0.976027
w 100 99 86 1
w 100 99 -86 0
w 100 -99 86 1
w 100 -99 -86 0
w 101 100 87 0
w 101 100 -87 1
w 101 -100 87 0
w 101 -100 -87 0
w 102 101 88 0
w 102 101 -88 1
w 102 -101 88 1
w 102 -101 -88 0
w 103 102 89 0.911126
w 103 102 -89 0.05981
w 103 -102 89 0.140704
w 103 -102 -89 0.824391
w 104 103 90 1
w 104 103 -90 1
w 104 -103 90 0
w 104 -103 -90 0
w 105 104 91 0
w 105 104 -91 0
w 105 -104 91 0
w 105 -104 -91 1
w 106 105 92 0
w 106 105 -92 0
w 106 -105 92 1
w 106 -105 -92 1
w 107 106 93 0.109306
w 107 106 -93 0.692702
w 107 -106 93 0.867532
w 107 -106 -93 0.843121
w 108 107 94 0
w 108 107 -94 0
w 108 -107 94 1
w 108 -107 -94 0
w 109 108 95 1
w 109 108 -95 0
w 109 -108 95 1
w 109 -108 -95 0
w 110 109 96 0.0637876
w 110 109 -96 0.913245
w 110 -109 96 0.308996
w 110 -109 -96 0.42602
w 111 110 97 0
w 111 110 -97 0
w 111 -110 97 1
w 111 -110 -97 0
w 112 111 98 0.294487
w 112 111 -98 0.00599509
w 112 -111 98 0.869937
w 112 -111 -98 0.399282
w 113 99 0.979243
w 113 -99 0.0919847
w 114 113 100 0.822364
w 114 113 -100 0.169308
w 114 -113 100 0.636057
w 114 -113 -100 0.766174
w 115 114 101 0.969732
w 115 114 -101 0.0672657
w 115 -114 101 0.776307
w 115 -114 -101 0.214532
w 116 115 102 1
w 116 115 -102 1
w 116 -115 102 0
w 116 -115 -102 1
w 117 116 103 0
w 117 116 -103 1
w 117 -116 103 0
w 117 -116 -103 1
w 118 117 104 1
w 118 117 -104 1
w 118 -117 104 0
w 118 -117 -104 0
w 119 118 105 1
w 119 118 -105 0
w 119 -118 105 0
w 119 -118 -105 1
w 120 119 106 1
w 120 119 -106 0
w 120 -119 106 1
w 120 -119 -106 1
w 121 120 107 0
w 121 120 -107 0
w 121 -120 107 0
w 121 -120 -107 1
w 122 121 108 0
w 122 121 -108 0
w 122 -121 108 1
w 122 -121 -108 0
w 123 122 109 0.788828
w 123 122 -109 0.403685
w 123 -122 109 0.266545
w 123 -122 -109 0.143385
w 124 123 110 1
w 124 123 -110 0
w 124 -123 110 1
w 124 -123 -110 1
w 125 124 111 0
w 125 124 -111 0
w 125 -124 111 1
w 125 -124 -111 1
w 126 125 112 0.274366
w 126 125 -112 0.588323
w 126 -125 112 0.300575
w 126 -125 -112 0.568671
w 127 113 0.626868
w 127 -113 0.581785
w 128 127 114 0.0204264
w 128 127 -114 0.371207
w 128 -127 114 0.113935
w 128 -127 -114 0.842152
w 129 128 115 0
w 129 128 -115 0
w 129 -128 115 0
w 129 -128 -115 1
w 130 129 116 0
w 130 129 -116 0
w 130 -129 116 1
w 130 -129 -116 1
w 131 130 117 0
w 131 130 -117 0
w 131 -130 117 1
w 131 -130 -117 1
w 132 131 118 0.38636
w 132 131 -118 0.161712
w 132 -131 118 0.546869
w 132 -131 -118 0.660725
w 133 132 119 0.847444
w 133 132 -119 0.229396
w 133 -132 119 0.46223
w 133 -132 -119 0.474311
w 134 133 120 0.268029
w 134 133 -120 0.494738
w 134 -133 120 0.182388
w 134 -133 -120 0.381964
w 135 134 121 0
w 135 134 -121 0
w 135 -134 121 0
w 135 -134 -121 1
w 136 135 122 0.341294
w 136 135 -122 0.458804
w 136 -135 122 0.220387
w 136 -135 -122 0.830625
w 137 136 123 1
w 137 136 -123 1
w 137 -136 123 0
w 137 -136 -123 1
w 138 137 124 0.628454
w 138 137 -124 0.964371
w 138 -137 124 0.826591
w 138 -137 -124 0.175323
w 139 138 125 0.576626
w 139 138 -125 0.0227665
w 139 -138 125 0.854492
w 139 -138 -125 0.0388567
w 140 139 126 1
w 140 139 -126 1
w 140 -139 126 0
w 140 -139 -126 1
w 141 127 0
w 141 -127 1
w 142 141 128 0.465956
w 142 141 -128 0.42048
w 142 -141 128 0.358988
w 142 -141 -128 0.807251
w 143 142 129 0.579375
w 143 142 -129 0.637876
w 143 -142 129 0.897612
w 143 -142 -129 0.920395
w 144 143 130 0
w 144 143 -130 1
w 144 -143 130 1
w 144 -143 -130 0
w 145 144 131 1
w 145 144 -131 0
w 145 -144 131 1
w 145 -144 -131 0
w 146 145 132 0.942365
w 146 145 -132 0.348506
w 146 -145 132 0.0432735
w 146 -145 -132 0.608039
w 147 146 133 0.0350894
w 147 146 -133 0.4561
w 147 -146 133 0.344242
w 147 -146 -133 0.363796
w 148 147 134 0.12085
w 148 147 -134 0.829752
w 148 -147 134 0.0421677
w 148 -147 -134 0.479838
w 149 148 135 0.921451
w 149 148 -135 0.0592127
w 149 -148 135 0.274878
w 149 -148 -135 0.819063
w 150 149 136 0.51643
w 150 149 -136 0.538715
w 150 -149 136 0.478014
w 150 -149 -136 0.422862
w 151 150 137 0.940791
w 151 150 -137 0.155885
w 151 -150 137 0.41025
w 151 -150 -137 0.0286635
w 152 151 138 0
w 152 151 -138 0
w 152 -151 138 1
w 152 -151 -138 1
w 153 152 139 0.469433
w 153 152 -139 0.0348086
w 153 -152 139 0.0351676
w 153 -152 -139 0.813675
w 154 153 140 0
w 154 153 -140 0
w 154 -153 140 0
w 154 -153 -140 1
w 155 141 0
w 155 -141 1
w 156 155 142 0.473576
w 156 155 -142 0.140237
w 156 -155 142 0.439537
w 156 -155 -142 0.453184
w 157 156 143 0.978252
w 157 156 -143 0.931198
w 157 -156 143 0.0795293
w 157 -156 -143 0.865073
w 158 157 144 0.235414
w 158 157 -144 0.275323
w 158 -157 144 0.900652
w 158 -157 -144 0.700949
w 159 158 145 1
w 159 158 -145 0
w 159 -158 145 0
w 159 -158 -145 0
w 160 159 146 0.266297
w 160 159 -146 0.485915
w 160 -159 146 0.798097
w 160 -159 -146 0.664901
w 161 160 147 0
w 161 160 -147 1
w 161 -160 147 0
w 161 -160 -147 1
w 162 161 148 0.462268
w 162 161 -148 0.620561
w 162 -161 148 0.898853
w 162 -161 -148 0.901805
w 163 162 149 1
w 163 162 -149 1
w 163 -162 149 0
w 163 -162 -149 1
w 164 163 150 0.876931
w 164 163 -150 0.870464
w 164 -163 150 0.0204542
w 164 -163 -150 0.777583
w 165 164 151 0.252223
w 165 164 -151 0.649263
w 165 -164 151 0.0864023
w 165 -164 -151 0.483711
w 166 165 152 0
w 166 165 -152 1
w 166 -165 152 0
w 166 -165 -152 1
w 167 166 153 1
w 167 166 -153 1
w 167 -166 153 1
w 167 -166 -153 0
w 168 167 154 0
w 168 167 -154 1
w 168 -167 154 1
w 168 -167 -154 1
w 169 155 0
w 169 -155 1
w 170 169 156 0.447779
w 170 169 -156 0.156207
w 170 -169 156 0.559753
w 170 -169 -156 0.32471
w 171 170 157 1
w 171 170 -157 1
w 171 -170 157 0
w 171 -170 -157 0
w 172 171 158 0.684486
w 172 171 -158 0.316141
w 172 -171 158 0.851567
w 172 -171 -158 0.755311
w 173 172 159 0
w 173 172 -159 1
w 173 -172 159 0
w 173 -172 -159 1
w 174 173 160 1
w 174 173 -160 0
w 174 -173 160 0
w 174 -173 -160 0
w 175 174 161 0.343398
w 175 174 -161 0.821642
w 175 -174 161 0.704002
w 175 -174 -161 0.786234
w 176 175 162 0
w 176 175 -162 0
w 176 -175 162 1
w 176 -175 -162 1
w 177 176 163 0.525676
w 177 176 -163 0.658584
w 177 -176 163 0.661016
w 177 -176 -163 0.12376
w 178 177 164 1
w 178 177 -164 0
w 178 -177 164 1
w 178 -177 -164 1
w 179 178 165 0.701632
w 179 178 -165 0.187789
w 179 -178 165 0.354363
w 179 -178 -165 0.86782
w 180 179 166 0
w 180 179 -166 0
w 180 -179 166 0
w 180 -179 -166 1
w 181 180 167 1
w 181 180 -167 0
w 181 -180 167 1
w 181 -180 -167 1
w 182 181 168 0
w 182 181 -168 0
w 182 -181 168 0
w 182 -181 -168 1
w 183 169 1
w 183 -169 0
w 184 183 170 0
w 184 183 -170 0
w 184 -183 170 1
w 184 -183 -170 1
w 185 184 171 0
w 185 184 -171 0
w 185 -184 171 1
w 185 -184 -171 1
w 186 185 172 0
w 186 185 -172 0
w 186 -185 172 1
w 186 -185 -172 0
w 187 186 173 1
w 187 186 -173 0
w 187 -186 173 1
w 187 -186 -173 1
w 188 187 174 0
w 188 187 -174 0
w 188 -187 174 1
w 188 -187 -174 0
w 189 188 175 0.673799
w 189 188 -175 0.650852
w 189 -188 175 0.545303
w 189 -188 -175 0.98404
w 190 189 176 0.878827
w 190 189 -176 0.955297
w 190 -189 176 0.152042
w 190 -189 -176 0.703366
w 191 190 177 0
w 191 190 -177 1
w 191 -190 177 0
w 191 -190 -177 1
w 192 191 178 0.336696
w 192 191 -178 0.829107
w 192 -191 178 0.699418
w 192 -191 -178 0.554116
w 193 192 179 1
w 193 192 -179 1
w 193 -192 179 1
w 193 -192 -179 0
w 194 193 180 0.193023
w 194 193 -180 0.528688
w 194 -193 180 0.845693
w 194 -193 -180 0.115305
w 195 194 181 0.716055
w 195 194 -181 0.789104
w 195 -194 181 0.167353
w 195 -194 -181 0.261357
w 196 195 182 0.00692023
w 196 195 -182 0.140185
w 196 -195 182 0.728441
w 196 -195 -182 0.158962